(define-fun-rec
  v3
  ((x Int) (y Int) (z Int)) Int (ite (<= x 0) z (v3 (- x 1) y z)))
(define-fun-rec
  v0
  ((x Int) (y Int) (z Int)) Int (ite (<= x 0) z (v0 (- x 1) y z)))
(define-fun-rec
  u4
  ((x Int) (y Int)) Int (ite (<= x 0) y (* (u4 (- x 1) y) x)))
(define-fun-rec
  u3
  ((x Int) (y Int) (z Int)) Int
  (ite (<= x 0) y (* (u3 (- x 1) y z) (v3 (- x 1) y z))))
(define-fun-rec
  u2
  ((x Int) (y Int)) Int (ite (<= x 0) y (* (u2 (- x 1) y) x)))
(define-fun-rec
  u1
  ((x Int) (y Int)) Int (ite (<= x 0) y (* (u1 (- x 1) y) x)))
(define-fun
  j0
  ((x Int)) Int x)
(define-fun
  h3
  ((x Int)) Int x)
(define-fun
  h1
  ((x Int)) Int x)
(define-fun
  h0
  ((x Int)) Int (+ 1 x))
(define-fun
  g4
  ((x Int)) Int (+ x x))
(define-fun
  v4
  ((x Int)) Int (u4 (g4 x) 1))
(define-fun
  w3
  ((x Int)) Int (u3 x 1 (v4 x)))
(define-fun
  g3
  ((x Int) (y Int)) Int y)
(define-fun
  g2
  ((x Int)) Int (+ x x))
(define-fun
  v2
  ((x Int)) Int (u2 (g2 x) 1))
(define-fun
  g1
  ((x Int) (y Int)) Int (+ y y))
(define-fun
  v1
  ((x Int) (y Int)) Int (u1 (g1 x y) x))
(define-fun-rec
  u0
  ((x Int) (y Int) (z Int)) Int
  (ite (<= x 0) y (v1 (u0 (- x 1) y z) (v0 (- x 1) y z))))
(define-fun
  w0
  ((x Int)) Int (u0 (h0 x) 1 x))
(define-fun
  g0
  ((x Int) (y Int)) Int y)
(define-fun
  fast
  ((x Int)) Int (* (v2 x) (w3 x)))
(assert-not
  (forall ((c Int)) (or (not (>= c 0)) (= (w0 c) (fast c)))))
